# H2O simulation

units         metal
dimension	3
boundary	p p p
atom_style	 atomic 
atom_modify   map yes
newton        on
 
neighbor	   1.0    bin
neigh_modify	 every 20  delay 0  check no

#  potentials
read_data   graphene-water.data
pair_style mace no_domain_decomposition
pair_coeff * * mace-ft-tutorial-main-3_compiled_f32.model-lammps.pt  C O H



#read_data   rbmd.data
# define groups
group  water   type  1 2


#shake 
#fix   H2O1  water  shake  1.0e-4 1000 50000 b 1 a 1


# initial velocities
velocity     all create  298   4928459 rot yes dist gaussian


# run
variable      dt    equal 0.001       #1fs
timestep	 ${dt}

# fixes

#fix     1      all   nve
#fix     2      all temp/berendsen  298  298  $(100*dt)
fix    4      all   nvt    temp 298 298    $(100*dt)


#output
#compute  RDF
compute  myRDF  all   rdf    100  1 1  2 2  1 2   
fix      myRDF  all ave/time 10  100  1000 c_myRDF[*] file rdf.txt mode vector

#compute MSD

compute  mymsd  all  msd      com yes average yes
fix      mymsd  all  ave/time 10  100  1000  c_mymsd[*] file msd.txt 


#
thermo		 1
thermo_style  custom step temp  press pe  ke etotal  

#dump		1   all  custom  100  dump.lammpstrj  id element x y z 
#dump_modify	1   sort id    element O H 

#restart  10000 *.data
run		1000

#write data file
#write_data    H2O_300_v.data

